c nIsolatedPIs 16
c maxPI 16
p cnf 74 175
c gate 17 5 13 0
5 -17 0
13 -17 0
-5 -13 17 0
c gate 18 4 12 0
4 -18 0
12 -18 0
-4 -12 18 0
c gate 19 3 11 0
3 -19 0
11 -19 0
-3 -11 19 0
c gate 20 -18 -19 0
-18 -20 0
-19 -20 0
18 19 20 0
c gate 21 1 9 0
1 -21 0
9 -21 0
-1 -9 21 0
c gate 22 -2 -21 0
-2 -22 0
-21 -22 0
2 21 22 0
c gate 23 10 -22 0
10 -23 0
-22 -23 0
-10 22 23 0
c gate 24 -2 10 0
-2 -24 0
10 -24 0
2 -10 24 0
c gate 25 2 -10 0
2 -25 0
-10 -25 0
-2 10 25 0
c gate 26 -24 -25 0
-24 -26 0
-25 -26 0
24 25 26 0
c gate 27 21 -26 0
21 -27 0
-26 -27 0
-21 26 27 0
c gate 28 -23 -27 0
-23 -28 0
-27 -28 0
23 27 28 0
c gate 29 -3 -11 0
-3 -29 0
-11 -29 0
3 11 29 0
c gate 30 -28 -29 0
-28 -30 0
-29 -30 0
28 29 30 0
c gate 31 20 -30 0
20 -31 0
-30 -31 0
-20 30 31 0
c gate 32 -4 -12 0
-4 -32 0
-12 -32 0
4 12 32 0
c gate 33 -5 -13 0
-5 -33 0
-13 -33 0
5 13 33 0
c gate 34 -32 -33 0
-32 -34 0
-33 -34 0
32 33 34 0
c gate 35 -31 34 0
-31 -35 0
34 -35 0
31 -34 35 0
c gate 36 -17 -35 0
-17 -36 0
-35 -36 0
17 35 36 0
c gate 37 -6 -14 0
-6 -37 0
-14 -37 0
6 14 37 0
c gate 38 -36 -37 0
-36 -38 0
-37 -38 0
36 37 38 0
c gate 39 6 14 0
6 -39 0
14 -39 0
-6 -14 39 0
c gate 40 -38 -39 0
-38 -40 0
-39 -40 0
38 39 40 0
c gate 41 7 15 0
7 -41 0
15 -41 0
-7 -15 41 0
c gate 42 40 -41 0
40 -42 0
-41 -42 0
-40 41 42 0
c gate 43 20 -23 0
20 -43 0
-23 -43 0
-20 23 43 0
c gate 44 -32 -43 0
-32 -44 0
-43 -44 0
32 43 44 0
c gate 45 -17 -44 0
-17 -45 0
-44 -45 0
17 44 45 0
c gate 46 -37 -45 0
-37 -46 0
-45 -46 0
37 45 46 0
c gate 47 -8 -16 0
-8 -47 0
-16 -47 0
8 16 47 0
c gate 48 46 -47 0
46 -48 0
-47 -48 0
-46 47 48 0
c gate 49 -42 48 0
-42 -49 0
48 -49 0
42 -48 49 0
c gate 50 42 -46 0
42 -50 0
-46 -50 0
-42 46 50 0
c gate 51 -7 -15 0
-7 -51 0
-15 -51 0
7 15 51 0
c gate 52 -50 -51 0
-50 -52 0
-51 -52 0
50 51 52 0
c gate 53 -49 52 0
-49 -53 0
52 -53 0
49 -52 53 0
c gate 54 -36 -45 0
-36 -54 0
-45 -54 0
36 45 54 0
c gate 55 -35 -44 0
-35 -55 0
-44 -55 0
35 44 55 0
c gate 56 40 55 0
40 -56 0
55 -56 0
-40 -55 56 0
c gate 57 -54 -56 0
-54 -57 0
-56 -57 0
54 56 57 0
c gate 58 40 46 0
40 -58 0
46 -58 0
-40 -46 58 0
c gate 59 -19 -29 0
-19 -59 0
-29 -59 0
19 29 59 0
c gate 60 23 -59 0
23 -60 0
-59 -60 0
-23 59 60 0
c gate 61 -1 9 0
-1 -61 0
9 -61 0
1 -9 61 0
c gate 62 -25 61 0
-25 -62 0
61 -62 0
25 -61 62 0
c gate 63 -3 11 0
-3 -63 0
11 -63 0
3 -11 63 0
c gate 64 -24 -63 0
-24 -64 0
-63 -64 0
24 63 64 0
c gate 65 -62 64 0
-62 -65 0
64 -65 0
62 -64 65 0
c gate 66 3 -11 0
3 -66 0
-11 -66 0
-3 11 66 0
c gate 67 4 -12 0
4 -67 0
-12 -67 0
-4 12 67 0
c gate 68 -66 67 0
-66 -68 0
67 -68 0
66 -67 68 0
c gate 69 -65 68 0
-65 -69 0
68 -69 0
65 -68 69 0
c gate 70 -27 -69 0
-27 -70 0
-69 -70 0
27 69 70 0
c gate 71 -60 70 0
-60 -71 0
70 -71 0
60 -70 71 0
c gate 72 -58 71 0
-58 -72 0
71 -72 0
58 -71 72 0
c gate 73 -57 72 0
-57 -73 0
72 -73 0
57 -72 73 0
c gate 74 -53 73 0
-53 -74 0
73 -74 0
53 -73 74 0
c PO
-74 0
